c description: Random 3-CNF over 14 variables and 56 clauses
p cnf 14 56
-2 -3 -6 0
4 7 8 0
4 -5 11 0
-8 -10 12 0
3 5 10 0
2 -5 14 0
-1 11 14 0
1 -2 4 0
-3 -9 -13 0
-2 -8 -11 0
5 7 -11 0
-2 6 -11 0
1 -5 -11 0
2 -5 8 0
-8 10 13 0
7 13 14 0
5 10 11 0
1 4 -5 0
2 -10 12 0
-3 7 8 0
6 -7 13 0
2 -3 7 0
10 11 14 0
-3 -10 13 0
-1 -3 -8 0
1 3 10 0
1 -12 14 0
-2 -3 4 0
5 -7 10 0
2 -3 11 0
-7 -9 10 0
1 8 11 0
-11 12 13 0
-5 -11 -14 0
10 11 -12 0
-3 -5 -13 0
5 6 10 0
3 6 14 0
-4 -9 13 0
-5 8 9 0
2 13 14 0
-5 7 -10 0
-1 -3 -6 0
-2 -8 -10 0
9 12 14 0
-6 9 -13 0
1 -2 -3 0
-1 -11 -12 0
7 -11 -12 0
2 10 -11 0
2 -4 12 0
-8 -9 11 0
3 -11 -12 0
7 8 -13 0
9 -10 12 0
-4 10 14 0